5 5
2 3 1 37 4 3 0 33 3 59
3 15 2 56 4 61 0 68 1 79
1 71 0 68 4 62 3 67 2 23
4 14 0 6 3 33 2 9 1 12
3 99 1 95 0 51 4 3 2 56
-1
0 3 5
0 1 3 5
0 2 5
0 3 5
0 2 5
-2
51 189
23 141 345
192 314
82 80
269 429

350 4
16 11 8 3 22
10 1 21 19 9
0 6 18 14 24
5 20 17 13 4
15 7 12 2 23
